
(set-logic ALL) 

(declare-datatype MyList ((Nil) (Cons (head Real) (tail MyList)) )) 
(declare-fun l0 () MyList) 
(declare-fun l1 () MyList) 
(declare-fun l2 () MyList) 
(declare-fun l3 () MyList) 
(declare-fun i0 () Real) 
(declare-fun i1 () Real) 
(assert (is-Cons l3) )
(assert (not (= l1 l1)) )
(assert (= l0 Nil) )
(assert (= l2 l1) )
(assert (is-Nil Nil) )
(assert (not (= l3 l2)) )
(assert (is-Nil Nil) )
(assert (and (= l0 l1) (= l1 l3) (= l3 Nil)) )
(check-sat)
